     Program PWSCF v.7.0 starts on  4Feb2023 at 16:45:55

     R & G space division:  proc/nbgrp/npool/nimage =      64

     Reading input from beta_align_min_energy.in

     Current dimensions of program PWSCF are:
     Max number of different atomic species (ntypx) = 10
     Max number of k-points (npk) =  40000
     Max angular momentum in pseudopotentials (lmaxx) =  4
     Message from routine setup:
     using ibrav=0 with symmetry is DISCOURAGED, use correct ibrav instead

     Using Slab Decomposition

     bravais-lattice index     =            0
     lattice parameter (alat)  =      11.7412  a.u.
     unit-cell volume          =    4495.3886 (a.u.)^3
     number of atoms/cell      =           32
     number of atomic types    =            3
     number of electrons       =       152.00
     number of Kohn-Sham states=           76
     kinetic-energy cutoff     =     120.0000  Ry
     charge density cutoff     =     480.0000  Ry
     scf convergence threshold =      1.0E-10
     mixing beta               =       0.7000
     number of iterations used =            8  plain     mixing
     energy convergence thresh.=      1.0E-04
     force convergence thresh. =      1.0E-03
     press convergence thresh. =      5.0E-01
     Exchange-correlation= PBESOL
                           (   1   4  10   8   0   0   0)
     nstep                     =           50

     celldm(1)=  11.741216  celldm(2)=   0.000000  celldm(3)=   0.000000
     celldm(4)=   0.000000  celldm(5)=   0.000000  celldm(6)=   0.000000

     crystal axes: (cart. coord. in units of alat)
               a(1) = (   1.000000   0.000000   0.000000 )
               a(2) = (   0.000000   1.308903   0.000000 )
               a(3) = (   0.000000   0.000000   2.121879 )

     reciprocal axes: (cart. coord. in units 2 pi/alat)
               b(1) = (  1.000000  0.000000  0.000000 )
               b(2) = (  0.000000  0.763999  0.000000 )
               b(3) = (  0.000000  0.000000  0.471280 )

     PseudoPot. # 1 for Li read from file:
     /users/dtisi/LIPS/Training-set/pseudo/Li.pbesol-s-rrkjus_psl.0.2.1.UPF
     MD5 check sum: 72891494af2ab24c7158e97891c09914
     Pseudo is Ultrasoft, Zval =  3.0
     Generated using "atomic" code by A. Dal Corso  v.5.0.2 svn rev. 9415
     Using radial grid of 1017 points,  4 beta functions with:
                l(1) =   0
                l(2) =   0
                l(3) =   1
                l(4) =   1
     Q(r) pseudized with 0 coefficients

     PseudoPot. # 2 for P  read from file:
     /users/dtisi/LIPS/Training-set/pseudo/P.pbesol-nl-rrkjus_psl.1.0.0.UPF
     MD5 check sum: 1a601e2f77c1a59e29acfb3f54c43dd8
     Pseudo is Ultrasoft + core correction, Zval =  5.0
     Generated using &quot;atomic&quot; code by A. Dal Corso  v.6.3
     Using radial grid of 1147 points,  4 beta functions with:
                l(1) =   0
                l(2) =   0
                l(3) =   1
                l(4) =   1
     Q(r) pseudized with 0 coefficients

     PseudoPot. # 3 for S  read from file:
     /users/dtisi/LIPS/Training-set/pseudo/S.pbesol-nl-rrkjus_psl.1.0.0.UPF
     MD5 check sum: 2d883303d1f226e93f308aa6cca9b8a1
     Pseudo is Ultrasoft + core correction, Zval =  6.0
     Generated using &quot;atomic&quot; code by A. Dal Corso  v.6.3
     Using radial grid of 1151 points,  4 beta functions with:
                l(1) =   0
                l(2) =   0
                l(3) =   1
                l(4) =   1
     Q(r) pseudized with 0 coefficients

     atomic species   valence    mass     pseudopotential
        Li             3.00     6.94000     Li( 1.00)
        P              5.00    30.97376     P ( 1.00)
        S              6.00    32.06000     S ( 1.00)

      2 Sym. Ops. (no inversion) found

                                    s                        frac. trans.

      isym =  1     identity

 cryst.   s( 1) = (     1          0          0      )
                  (     0          1          0      )
                  (     0          0          1      )

 cart.    s( 1) = (  1.0000000  0.0000000  0.0000000 )
                  (  0.0000000  1.0000000  0.0000000 )
                  (  0.0000000  0.0000000  1.0000000 )

      isym =  2     inv. 180 deg rotation - cart. axis [0,1,0]

[...]

   Cartesian axes

     site n.     atom                  positions (alat units)
         1           Li  tau(   1) = (   0.2352410   1.0231955   1.6065721  )
         2           Li  tau(   2) = (   0.4571590   0.9401587   0.8940325  )
         3           Li  tau(   3) = (   0.7352410   0.9401587   1.9549719  )
         4           Li  tau(   4) = (   0.9571590   1.0231955   0.5456327  )
         5           Li  tau(   5) = (   0.4571590   0.3687441   0.8940325  )
         6           Li  tau(   6) = (   0.2352410   0.2857073   1.6065721  )
         7           Li  tau(   7) = (   0.9571590   0.2857073   0.5456327  )
         8           Li  tau(   8) = (   0.7352410   0.3687441   1.9549719  )
         9           Li  tau(   9) = (   0.3462000   0.9816771   0.1893628  )
        10           Li  tau(  10) = (   0.8462000   0.9816771   1.2503023  )
        11           Li  tau(  11) = (   0.3462000   0.3272257   0.1893628  )
        12           Li  tau(  12) = (   0.8462000   0.3272257   1.2503023  )
        13           P   tau(  13) = (   0.0000000   0.0000000   0.0000000  )
        14           P   tau(  14) = (   0.6924000   0.6544514   0.3787257  )
        15           P   tau(  15) = (   0.5000000   0.6544514   1.4396651  )
        16           P   tau(  16) = (   0.1924000   0.0000000   1.0609394  )
        17           S   tau(  17) = (   0.6720380   0.0000000   2.0961596  )
        18           S   tau(  18) = (   0.0203620   0.6544514   0.4044450  )
        19           S   tau(  19) = (   0.1720380   0.6544514   1.4653844  )
        20           S   tau(  20) = (   0.5203620   0.0000000   1.0352202  )
        21           S   tau(  21) = (   0.1190070   0.0000000   0.3155573  )
        22           S   tau(  22) = (   0.5733930   0.6544514   0.0631683  )
        23           S   tau(  23) = (   0.6190070   0.6544514   1.1241078  )
        24           S   tau(  24) = (   0.0733930   0.0000000   1.3764968  )
        25           S   tau(  25) = (   0.1194520   1.0308945   1.9877868  )
        26           S   tau(  26) = (   0.5729480   0.9324597   0.5128178  )
        27           S   tau(  27) = (   0.6194520   0.9324597   1.5737573  )
        28           S   tau(  28) = (   0.0729480   1.0308945   0.9268473  )
        29           S   tau(  29) = (   0.5729480   0.3764431   0.5128178  )
        30           S   tau(  30) = (   0.1194520   0.2780083   1.9877868  )
        31           S   tau(  31) = (   0.0729480   0.2780083   0.9268473  )
        32           S   tau(  32) = (   0.6194520   0.3764431   1.5737573  )

   Crystallographic axes

     site n.     atom                  positions (cryst. coord.)
         1           Li  tau(   1) = (  0.2352410  0.7817200  0.7571460  )
         2           Li  tau(   2) = (  0.4571590  0.7182800  0.4213400  )
         3           Li  tau(   3) = (  0.7352410  0.7182800  0.9213400  )
         4           Li  tau(   4) = (  0.9571590  0.7817200  0.2571460  )
         5           Li  tau(   5) = (  0.4571590  0.2817200  0.4213400  )
         6           Li  tau(   6) = (  0.2352410  0.2182800  0.7571460  )
         7           Li  tau(   7) = (  0.9571590  0.2182800  0.2571460  )
         8           Li  tau(   8) = (  0.7352410  0.2817200  0.9213400  )
         9           Li  tau(   9) = (  0.3462000  0.7500000  0.0892430  )
        10           Li  tau(  10) = (  0.8462000  0.7500000  0.5892430  )
        11           Li  tau(  11) = (  0.3462000  0.2500000  0.0892430  )
        12           Li  tau(  12) = (  0.8462000  0.2500000  0.5892430  )
        13           P   tau(  13) = (  0.0000000  0.0000000  0.0000000  )
        14           P   tau(  14) = (  0.6924000  0.5000000  0.1784860  )
        15           P   tau(  15) = (  0.5000000  0.5000000  0.6784860  )
        16           P   tau(  16) = (  0.1924000  0.0000000  0.5000000  )
        17           S   tau(  17) = (  0.6720380  0.0000000  0.9878790  )
        18           S   tau(  18) = (  0.0203620  0.5000000  0.1906070  )
        19           S   tau(  19) = (  0.1720380  0.5000000  0.6906070  )
        20           S   tau(  20) = (  0.5203620  0.0000000  0.4878790  )
        21           S   tau(  21) = (  0.1190070  0.0000000  0.1487160  )
        22           S   tau(  22) = (  0.5733930  0.5000000  0.0297700  )
        23           S   tau(  23) = (  0.6190070  0.5000000  0.5297700  )
        24           S   tau(  24) = (  0.0733930  0.0000000  0.6487160  )
        25           S   tau(  25) = (  0.1194520  0.7876020  0.9368050  )
        26           S   tau(  26) = (  0.5729480  0.7123980  0.2416810  )
        27           S   tau(  27) = (  0.6194520  0.7123980  0.7416810  )
        28           S   tau(  28) = (  0.0729480  0.7876020  0.4368050  )
        29           S   tau(  29) = (  0.5729480  0.2876020  0.2416810  )
        30           S   tau(  30) = (  0.1194520  0.2123980  0.9368050  )
        31           S   tau(  31) = (  0.0729480  0.2123980  0.4368050  )
        32           S   tau(  32) = (  0.6194520  0.2876020  0.7416810  )

     number of k points=    16
                       cart. coord. in units 2pi/alat
        k(    1) = (   0.1250000   0.0954998   0.0589101), wk =   0.1250000
        k(    2) = (   0.1250000   0.0954998   0.1767302), wk =   0.1250000
        k(    3) = (   0.1250000   0.2864995   0.0589101), wk =   0.1250000
        k(    4) = (   0.1250000   0.2864995   0.1767302), wk =   0.1250000
        k(    5) = (   0.3750000   0.0954998   0.0589101), wk =   0.1250000
        k(    6) = (   0.3750000   0.0954998   0.1767302), wk =   0.1250000
        k(    7) = (   0.3750000   0.2864995   0.0589101), wk =   0.1250000
        k(    8) = (   0.3750000   0.2864995   0.1767302), wk =   0.1250000
        k(    9) = (   0.1250000  -0.0954998  -0.0589101), wk =   0.1250000
        k(   10) = (   0.1250000  -0.0954998  -0.1767302), wk =   0.1250000
        k(   11) = (   0.1250000  -0.2864995  -0.0589101), wk =   0.1250000
        k(   12) = (   0.1250000  -0.2864995  -0.1767302), wk =   0.1250000
        k(   13) = (   0.3750000  -0.0954998  -0.0589101), wk =   0.1250000
        k(   14) = (   0.3750000  -0.0954998  -0.1767302), wk =   0.1250000
        k(   15) = (   0.3750000  -0.2864995  -0.0589101), wk =   0.1250000
        k(   16) = (   0.3750000  -0.2864995  -0.1767302), wk =   0.1250000

                       cryst. coord.
        k(    1) = (   0.1250000   0.1250000   0.1250000), wk =   0.1250000
        k(    2) = (   0.1250000   0.1250000   0.3750000), wk =   0.1250000
        k(    3) = (   0.1250000   0.3750000   0.1250000), wk =   0.1250000
        k(    4) = (   0.1250000   0.3750000   0.3750000), wk =   0.1250000
        k(    5) = (   0.3750000   0.1250000   0.1250000), wk =   0.1250000
        k(    6) = (   0.3750000   0.1250000   0.3750000), wk =   0.1250000
[...]
     atom   11 type  1   force =    -0.00000022    0.00000021   -0.00000008
     atom   12 type  1   force =     0.00000020    0.00000022    0.00000001
     atom   13 type  2   force =     0.03788400    0.00000000    0.04337672
     atom   14 type  2   force =    -0.03788289    0.00000000   -0.04337488
     atom   15 type  2   force =     0.03788024    0.00000000   -0.04337795
     atom   16 type  2   force =    -0.03788137    0.00000000    0.04337840
     atom   17 type  3   force =     0.04151027    0.00000000    0.03341998
     atom   18 type  3   force =    -0.04151036    0.00000000   -0.03342078
     atom   19 type  3   force =     0.04151170    0.00000000   -0.03342016
     atom   20 type  3   force =    -0.04151175    0.00000000    0.03341853
     atom   21 type  3   force =    -0.08051819    0.00000000   -0.05437210
     atom   22 type  3   force =     0.08051831    0.00000000    0.05437169
     atom   23 type  3   force =    -0.08051859    0.00000000    0.05437140
     atom   24 type  3   force =     0.08051804    0.00000000   -0.05437191
     atom   25 type  3   force =    -0.01515064    0.07009054   -0.00994690
     atom   26 type  3   force =     0.01515116   -0.07009069    0.00994700
     atom   27 type  3   force =    -0.01514795   -0.07009167    0.00994611
     atom   28 type  3   force =     0.01514788    0.07009199   -0.00994660
     atom   29 type  3   force =     0.01515116    0.07009069    0.00994700
     atom   30 type  3   force =    -0.01515064   -0.07009054   -0.00994690
     atom   31 type  3   force =     0.01514788   -0.07009199   -0.00994660
     atom   32 type  3   force =    -0.01514795    0.07009167    0.00994611
     The ionic contribution  to forces
     atom    1 type  1   force =    -0.16530529    0.60046070    0.50041217
     atom    2 type  1   force =     0.16530833   -0.60046169   -0.50040685
     atom    3 type  1   force =    -0.16530987   -0.60047353   -0.50042205
     atom    4 type  1   force =     0.16530734    0.60047356    0.50043320
     atom    5 type  1   force =     0.16530833    0.60046169   -0.50040685
     atom    6 type  1   force =    -0.16530529   -0.60046070    0.50041217
     atom    7 type  1   force =     0.16530734   -0.60047356    0.50043320
     atom    8 type  1   force =    -0.16530987    0.60047353   -0.50042205
     atom    9 type  1   force =    -0.00000040   -0.00000131   -0.00000312
     atom   10 type  1   force =    -0.00000106   -0.00000219   -0.00000528
     atom   11 type  1   force =    -0.00000040    0.00000131   -0.00000312
     atom   12 type  1   force =    -0.00000106    0.00000219   -0.00000528
     atom   13 type  2   force =    -0.19378077   -0.00000000   -0.28816768
     atom   14 type  2   force =     0.19378517    0.00000000    0.28816818
     atom   15 type  2   force =    -0.19377355    0.00000000    0.28817430
     atom   16 type  2   force =     0.19376903    0.00000000   -0.28818915
     atom   17 type  3   force =    -3.54364933   -0.00000000   -0.29238629
     atom   18 type  3   force =     3.54364001    0.00000000    0.29240132
     atom   19 type  3   force =    -3.54361822    0.00000000    0.29234550
     atom   20 type  3   force =     3.54362663   -0.00000000   -0.29234134
     atom   21 type  3   force =     1.15663602   -0.00000000    3.41513248
     atom   22 type  3   force =    -1.15663161    0.00000000   -3.41513794
     atom   23 type  3   force =     1.15663966    0.00000000   -3.41512773
     atom   24 type  3   force =    -1.15664078   -0.00000000    3.41510980
     atom   25 type  3   force =     1.36326465   -3.26609307   -1.89584792
     atom   26 type  3   force =    -1.36325982    3.26609262    1.89585421
     atom   27 type  3   force =     1.36321833    3.26611246    1.89586930
     atom   28 type  3   force =    -1.36322334   -3.26611366   -1.89587438
     atom   29 type  3   force =    -1.36325982   -3.26609262    1.89585421
     atom   30 type  3   force =     1.36326465    3.26609307   -1.89584792
     atom   31 type  3   force =    -1.36322334    3.26611366   -1.89587438
     atom   32 type  3   force =     1.36321833   -3.26611246    1.89586930
     The local contribution  to forces
     atom    1 type  1   force =     0.17373752   -0.61458916   -0.50394237
     atom    2 type  1   force =    -0.17374056    0.61459039    0.50393719
     atom    3 type  1   force =     0.17374063    0.61460265    0.50395395
     atom    4 type  1   force =    -0.17373805   -0.61460243   -0.50396498
     atom    5 type  1   force =    -0.17374056   -0.61459039    0.50393719
     atom    6 type  1   force =     0.17373752    0.61458916   -0.50394237
     atom    7 type  1   force =    -0.17373805    0.61460243   -0.50396498
     atom    8 type  1   force =     0.17374063   -0.61460265    0.50395395
     atom    9 type  1   force =     0.00000064    0.00000149    0.00000313
     atom   10 type  1   force =     0.00000082    0.00000236    0.00000528
     atom   11 type  1   force =     0.00000064   -0.00000149    0.00000313
     atom   12 type  1   force =     0.00000082   -0.00000236    0.00000528
     atom   13 type  2   force =     0.15695176   -0.00000000    0.24654220
     atom   14 type  2   force =    -0.15695719   -0.00000000   -0.24654440
     atom   15 type  2   force =     0.15694806   -0.00000000   -0.24654750
     atom   16 type  2   force =    -0.15694251    0.00000000    0.24656144
     atom   17 type  3   force =     3.49677665   -0.00000000    0.25929627
     atom   18 type  3   force =    -3.49676702    0.00000000   -0.25931023
     atom   19 type  3   force =     3.49674427    0.00000000   -0.25925542
     atom   20 type  3   force =    -3.49675251   -0.00000000    0.25925217
     atom   21 type  3   force =    -1.07534868   -0.00000000   -3.35799983
     atom   22 type  3   force =     1.07534426    0.00000000    3.35800614
     atom   23 type  3   force =    -1.07535190    0.00000000    3.35799598
     atom   24 type  3   force =     1.07535318    0.00000000   -3.35797774
     atom   25 type  3   force =    -1.34641366    3.19246110    1.90427127
     atom   26 type  3   force =     1.34640826   -3.19245985   -1.90427730
     atom   27 type  3   force =    -1.34637024   -3.19247903   -1.90429168
     atom   28 type  3   force =     1.34637530    3.19248005    1.90429657
     atom   29 type  3   force =     1.34640826    3.19245985   -1.90427730
     atom   30 type  3   force =    -1.34641366   -3.19246110    1.90427127
     atom   31 type  3   force =     1.34637530   -3.19248005    1.90429657
     atom   32 type  3   force =    -1.34637024    3.19247903   -1.90429168
     The core correction contribution to forces
     atom    1 type  1   force =     0.00000000    0.00000000    0.00000000
     atom    2 type  1   force =     0.00000000    0.00000000    0.00000000
     atom    3 type  1   force =     0.00000000    0.00000000    0.00000000
     atom    4 type  1   force =     0.00000000    0.00000000    0.00000000
     atom    5 type  1   force =     0.00000000    0.00000000    0.00000000
     atom    6 type  1   force =     0.00000000    0.00000000    0.00000000
     atom    7 type  1   force =     0.00000000    0.00000000    0.00000000
     atom    8 type  1   force =     0.00000000    0.00000000    0.00000000
     atom    9 type  1   force =     0.00000000    0.00000000    0.00000000
     atom   10 type  1   force =     0.00000000    0.00000000    0.00000000
     atom   11 type  1   force =     0.00000000    0.00000000    0.00000000
     atom   12 type  1   force =     0.00000000    0.00000000    0.00000000
     atom   13 type  2   force =    -0.00131088   -0.00000000   -0.00187270
     atom   14 type  2   force =     0.00131083   -0.00000000    0.00187264
     atom   15 type  2   force =    -0.00131074   -0.00000000    0.00187274
     atom   16 type  2   force =     0.00131080    0.00000000   -0.00187275
     atom   17 type  3   force =     0.00514586    0.00000000   -0.00061321
     atom   18 type  3   force =    -0.00514585   -0.00000000    0.00061321
     atom   19 type  3   force =     0.00514579   -0.00000000    0.00061327
     atom   20 type  3   force =    -0.00514580   -0.00000000   -0.00061327
     atom   21 type  3   force =    -0.00060471   -0.00000000   -0.00311919
     atom   22 type  3   force =     0.00060470   -0.00000000    0.00311922
     atom   23 type  3   force =    -0.00060470   -0.00000000    0.00311918
     atom   24 type  3   force =     0.00060470   -0.00000000   -0.00311916
     atom   25 type  3   force =    -0.00186110    0.00332419    0.00213915
     atom   26 type  3   force =     0.00186108   -0.00332419   -0.00213915
     atom   27 type  3   force =    -0.00186106   -0.00332421   -0.00213917
     atom   28 type  3   force =     0.00186106    0.00332421    0.00213918
     atom   29 type  3   force =     0.00186108    0.00332419   -0.00213915
     atom   30 type  3   force =    -0.00186110   -0.00332419    0.00213915
     atom   31 type  3   force =     0.00186106   -0.00332421    0.00213918
     atom   32 type  3   force =    -0.00186106    0.00332421   -0.00213917
     The Hubbard contrib.    to forces
     atom    1 type  1   force =     0.00000000    0.00000000    0.00000000
     atom    2 type  1   force =     0.00000000    0.00000000    0.00000000
     atom    3 type  1   force =     0.00000000    0.00000000    0.00000000
     atom    4 type  1   force =     0.00000000    0.00000000    0.00000000
     atom    5 type  1   force =     0.00000000    0.00000000    0.00000000
     atom    6 type  1   force =     0.00000000    0.00000000    0.00000000
     atom    7 type  1   force =     0.00000000    0.00000000    0.00000000
     atom    8 type  1   force =     0.00000000    0.00000000    0.00000000
     atom    9 type  1   force =     0.00000000    0.00000000    0.00000000
     atom   10 type  1   force =     0.00000000    0.00000000    0.00000000
     atom   11 type  1   force =     0.00000000    0.00000000    0.00000000
     atom   12 type  1   force =     0.00000000    0.00000000    0.00000000
     atom   13 type  2   force =     0.00000000    0.00000000    0.00000000
     atom   14 type  2   force =     0.00000000    0.00000000    0.00000000
     atom   15 type  2   force =     0.00000000    0.00000000    0.00000000
     atom   16 type  2   force =     0.00000000    0.00000000    0.00000000
     atom   17 type  3   force =     0.00000000    0.00000000    0.00000000
     atom   18 type  3   force =     0.00000000    0.00000000    0.00000000
     atom   19 type  3   force =     0.00000000    0.00000000    0.00000000
     atom   20 type  3   force =     0.00000000    0.00000000    0.00000000
     atom   21 type  3   force =     0.00000000    0.00000000    0.00000000
     atom   22 type  3   force =     0.00000000    0.00000000    0.00000000
     atom   23 type  3   force =     0.00000000    0.00000000    0.00000000
     atom   24 type  3   force =     0.00000000    0.00000000    0.00000000
     atom   25 type  3   force =     0.00000000    0.00000000    0.00000000
     atom   26 type  3   force =     0.00000000    0.00000000    0.00000000
     atom   27 type  3   force =     0.00000000    0.00000000    0.00000000
     atom   28 type  3   force =     0.00000000    0.00000000    0.00000000
     atom   29 type  3   force =     0.00000000    0.00000000    0.00000000
     atom   30 type  3   force =     0.00000000    0.00000000    0.00000000
     atom   31 type  3   force =     0.00000000    0.00000000    0.00000000
     atom   32 type  3   force =     0.00000000    0.00000000    0.00000000
     The SCF correction term to forces
     atom    1 type  1   force =     0.00000003   -0.00000003   -0.00000008
     atom    2 type  1   force =    -0.00000001   -0.00000004    0.00000016
     atom    3 type  1   force =     0.00000001   -0.00000004   -0.00000001
     atom    4 type  1   force =    -0.00000006   -0.00000011   -0.00000001
     atom    5 type  1   force =    -0.00000001    0.00000004    0.00000016
     atom    6 type  1   force =     0.00000003    0.00000003   -0.00000008
     atom    7 type  1   force =    -0.00000006    0.00000011   -0.00000001
     atom    8 type  1   force =     0.00000001    0.00000004   -0.00000001
     atom    9 type  1   force =     0.00000000   -0.00000007   -0.00000009
     atom   10 type  1   force =     0.00000002   -0.00000004    0.00000001
     atom   11 type  1   force =     0.00000000    0.00000007   -0.00000009
     atom   12 type  1   force =     0.00000002    0.00000004    0.00000001
     atom   13 type  2   force =    -0.00000002   -0.00000000   -0.00000027
     atom   14 type  2   force =    -0.00000001    0.00000000    0.00000008
     atom   15 type  2   force =    -0.00000001   -0.00000000    0.00000009
     atom   16 type  2   force =     0.00000001    0.00000000    0.00000023
     atom   17 type  3   force =     0.00000017    0.00000000   -0.00000028
     atom   18 type  3   force =    -0.00000034   -0.00000000    0.00000001
     atom   19 type  3   force =     0.00000018    0.00000000    0.00000001
     atom   20 type  3   force =    -0.00000030   -0.00000000    0.00000029
     atom   21 type  3   force =    -0.00000006   -0.00000000   -0.00000039
     atom   22 type  3   force =     0.00000005    0.00000000   -0.00000003
     atom   23 type  3   force =     0.00000000   -0.00000000    0.00000027
     atom   24 type  3   force =     0.00000019    0.00000000   -0.00000021
     atom   25 type  3   force =    -0.00000003    0.00000001   -0.00000018
     atom   26 type  3   force =     0.00000017   -0.00000051   -0.00000009
     atom   27 type  3   force =    -0.00000014   -0.00000024   -0.00000011
     atom   28 type  3   force =     0.00000011    0.00000014    0.00000049
     atom   29 type  3   force =     0.00000017    0.00000051   -0.00000009
     atom   30 type  3   force =    -0.00000003   -0.00000001   -0.00000018
     atom   31 type  3   force =     0.00000011   -0.00000014    0.00000049
     atom   32 type  3   force =    -0.00000014    0.00000024   -0.00000011

     Total force =     0.003041     Total SCF correction =     0.000002

     Computing stress (Cartesian axis) and pressure

          total   stress  (Ry/bohr**3)                   (kbar)     P=       -0.13
  -0.00000125   0.00000000   0.00000000           -0.18        0.00        0.00
   0.00000000   0.00000103   0.00000000            0.00        0.15        0.00
   0.00000000   0.00000000  -0.00000252            0.00        0.00       -0.37

     kinetic stress (kbar)   5019.52      0.00     -0.00
                                0.00   4998.55      0.00
                               -0.00      0.00   5068.58

     local   stress (kbar)  -3897.68     -0.00     -0.02
                               -0.00  -3788.84      0.00
                               -0.02      0.00  -2992.01

     nonloc. stress (kbar)   2924.23      0.00      0.00
                                0.00   2922.27      0.00
                                0.00      0.00   2922.98

     hartree stress (kbar)   1556.94      0.00      0.01
                                0.00   1496.32     -0.00
                                0.01     -0.00   1219.39

     exc-cor stress (kbar)   -998.46      0.00      0.00
                                0.00   -998.78     -0.00
                                0.00     -0.00   -998.67

     corecor stress (kbar)   -485.90     -0.00     -0.00
                               -0.00   -485.70      0.00
                               -0.00      0.00   -485.54

     ewald   stress (kbar)  -4118.83      0.00      0.01
                                0.00  -4143.66     -0.00
                                0.01     -0.00  -4735.10

     hubbard stress (kbar)      0.00      0.00      0.00
                                0.00      0.00      0.00
                                0.00      0.00      0.00

     DFT-D   stress (kbar)      0.00      0.00      0.00
                                0.00      0.00      0.00
                                0.00      0.00      0.00

     XDM     stress (kbar)      0.00      0.00      0.00
                                0.00      0.00      0.00
                                0.00      0.00      0.00

     dft-nl  stress (kbar)      0.00      0.00      0.00
                                0.00      0.00      0.00
                                0.00      0.00      0.00

     TS-vdW  stress (kbar)      0.00      0.00      0.00
                                0.00      0.00      0.00
                                0.00      0.00      0.00

[...]

                                0.00      0.00      0.00

     Writing all to output data dir ./tmp1/pwscf.save/

     General routines

     Parallel routines

   This run was terminated on:  18:10:49   4Feb2023

   JOB DONE.