     Program PWSCF v.7.0 starts on  4Feb2023 at 18:10:50

     R & G space division:  proc/nbgrp/npool/nimage =      64

     Reading input from gamma_alignrot_min_energy.in

     Current dimensions of program PWSCF are:
     Max number of different atomic species (ntypx) = 10
     Max number of k-points (npk) =  40000
     Max angular momentum in pseudopotentials (lmaxx) =  4
     Found identity + (  0.0000  0.0000 -0.5000) symmetry
     This is a supercell, fractional translations are disabled
     Message from routine setup:
     using ibrav=0 with symmetry is DISCOURAGED, use correct ibrav instead

     Using Slab Decomposition

     bravais-lattice index     =            0
     lattice parameter (alat)  =      11.5342  a.u.
     unit-cell volume          =    4149.8635 (a.u.)^3
     number of atoms/cell      =           32
     number of atomic types    =            3
     number of electrons       =       152.00
     number of Kohn-Sham states=           76
     kinetic-energy cutoff     =     120.0000  Ry
     charge density cutoff     =     480.0000  Ry
     scf convergence threshold =      1.0E-10
     mixing beta               =       0.7000
     number of iterations used =            8  plain     mixing
     energy convergence thresh.=      1.0E-04
     force convergence thresh. =      1.0E-03
     press convergence thresh. =      5.0E-01
     Exchange-correlation= PBESOL
                           (   1   4  10   8   0   0   0)
     nstep                     =           50

     celldm(1)=  11.534227  celldm(2)=   0.000000  celldm(3)=   0.000000
     celldm(4)=   0.000000  celldm(5)=   0.000000  celldm(6)=   0.000000

     crystal axes: (cart. coord. in units of alat)
               a(1) = (   1.000000   0.000000   0.000000 )
               a(2) = (  -0.000000   1.262898   0.000000 )
               a(3) = (   0.000000   0.000000   2.141410 )

     reciprocal axes: (cart. coord. in units 2 pi/alat)
               b(1) = (  1.000000  0.000000  0.000000 )
               b(2) = ( -0.000000  0.791829  0.000000 )
               b(3) = (  0.000000  0.000000  0.466982 )

     PseudoPot. # 1 for Li read from file:
     /users/dtisi/LIPS/Training-set/pseudo/Li.pbesol-s-rrkjus_psl.0.2.1.UPF
     MD5 check sum: 72891494af2ab24c7158e97891c09914
     Pseudo is Ultrasoft, Zval =  3.0
     Generated using "atomic" code by A. Dal Corso  v.5.0.2 svn rev. 9415
     Using radial grid of 1017 points,  4 beta functions with:
                l(1) =   0
                l(2) =   0
                l(3) =   1
                l(4) =   1
     Q(r) pseudized with 0 coefficients

     PseudoPot. # 2 for P  read from file:
     /users/dtisi/LIPS/Training-set/pseudo/P.pbesol-nl-rrkjus_psl.1.0.0.UPF
     MD5 check sum: 1a601e2f77c1a59e29acfb3f54c43dd8
     Pseudo is Ultrasoft + core correction, Zval =  5.0
     Generated using &quot;atomic&quot; code by A. Dal Corso  v.6.3
     Using radial grid of 1147 points,  4 beta functions with:
                l(1) =   0
                l(2) =   0
                l(3) =   1
                l(4) =   1
     Q(r) pseudized with 0 coefficients

     PseudoPot. # 3 for S  read from file:
     /users/dtisi/LIPS/Training-set/pseudo/S.pbesol-nl-rrkjus_psl.1.0.0.UPF
     MD5 check sum: 2d883303d1f226e93f308aa6cca9b8a1
     Pseudo is Ultrasoft + core correction, Zval =  6.0
     Generated using &quot;atomic&quot; code by A. Dal Corso  v.6.3
     Using radial grid of 1151 points,  4 beta functions with:
                l(1) =   0
                l(2) =   0
                l(3) =   1
                l(4) =   1
     Q(r) pseudized with 0 coefficients

     atomic species   valence    mass     pseudopotential
        Li             3.00     6.94000     Li( 1.00)
        P              5.00    30.97376     P ( 1.00)
        S              6.00    32.06000     S ( 1.00)

      2 Sym. Ops. (no inversion) found

                                    s                        frac. trans.

      isym =  1     identity

 cryst.   s( 1) = (     1          0          0      )
                  (     0          1          0      )
                  (     0          0          1      )

 cart.    s( 1) = (  1.0000000  0.0000000  0.0000000 )
                  ( -0.0000000  1.0000000  0.0000000 )
                  (  0.0000000  0.0000000  1.0000000 )

      isym =  2     inv. 180 deg rotation - cart. axis [0,1,0]

[...]

   Cartesian axes

     site n.     atom                  positions (alat units)
         1           Li  tau(   1) = (   0.0237000   0.3159772   0.5450960  )
         2           Li  tau(   2) = (   0.5237000   0.3154720   0.9072085  )
         3           Li  tau(   3) = (   0.5237000   0.9474264   0.9072085  )
         4           Li  tau(   4) = (   0.0237000   0.9469212   0.5450960  )
         5           Li  tau(   5) = (   0.4918000   0.0000000   0.3460519  )
         6           Li  tau(   6) = (   0.9918000   0.6314492   0.0355474  )
         7           Li  tau(   7) = (   0.0237000   0.3159772   1.6158013  )
         8           Li  tau(   8) = (   0.5237000   0.3154720   1.9779138  )
         9           Li  tau(   9) = (   0.5237000   0.9474264   1.9779138  )
        10           Li  tau(  10) = (   0.0237000   0.9469212   1.6158013  )
        11           Li  tau(  11) = (   0.4918000   0.0000000   1.4167572  )
        12           Li  tau(  12) = (   0.9918000   0.6314492   1.1062526  )
        13           P   tau(  13) = (   0.0000000   0.0000000   0.0000000  )
        14           P   tau(  14) = (   0.5000000   0.6314492   0.3815993  )
        15           P   tau(  15) = (   0.0000000   0.0000000   1.0707052  )
        16           P   tau(  16) = (   0.5000000   0.6314492   1.4523046  )
        17           S   tau(  17) = (   0.8915000   0.2759433   0.9099924  )
        18           S   tau(  18) = (   0.3915000   0.3555059   0.5423122  )
        19           S   tau(  19) = (   0.3915000   0.9073925   0.5423122  )
        20           S   tau(  20) = (   0.8915000   0.9869551   0.9099924  )
        21           S   tau(  21) = (   0.8938000   0.0000000   0.3067570  )
        22           S   tau(  22) = (   0.3938000   0.6314492   0.0748423  )
        23           S   tau(  23) = (   0.3288000   0.0000000   1.0526103  )
        24           S   tau(  24) = (   0.8288000   0.6314492   0.3996943  )
        25           S   tau(  25) = (   0.8915000   0.2759433   1.9806976  )
        26           S   tau(  26) = (   0.3915000   0.3555059   1.6130174  )
        27           S   tau(  27) = (   0.3915000   0.9073925   1.6130174  )
        28           S   tau(  28) = (   0.8915000   0.9869551   1.9806976  )
        29           S   tau(  29) = (   0.8938000   0.0000000   1.3774623  )
        30           S   tau(  30) = (   0.3938000   0.6314492   1.1455475  )
        31           S   tau(  31) = (   0.3288000   0.0000000   2.1233155  )
        32           S   tau(  32) = (   0.8288000   0.6314492   1.4703995  )

   Crystallographic axes

     site n.     atom                  positions (cryst. coord.)
         1           Li  tau(   1) = (  0.0237000  0.2502000  0.2545500  )
         2           Li  tau(   2) = (  0.5237000  0.2498000  0.4236500  )
         3           Li  tau(   3) = (  0.5237000  0.7502000  0.4236500  )
         4           Li  tau(   4) = (  0.0237000  0.7498000  0.2545500  )
         5           Li  tau(   5) = (  0.4918000 -0.0000000  0.1616000  )
         6           Li  tau(   6) = (  0.9918000  0.5000000  0.0166000  )
         7           Li  tau(   7) = (  0.0237000  0.2502000  0.7545500  )
         8           Li  tau(   8) = (  0.5237000  0.2498000  0.9236500  )
         9           Li  tau(   9) = (  0.5237000  0.7502000  0.9236500  )
        10           Li  tau(  10) = (  0.0237000  0.7498000  0.7545500  )
        11           Li  tau(  11) = (  0.4918000 -0.0000000  0.6616000  )
        12           Li  tau(  12) = (  0.9918000  0.5000000  0.5166000  )
        13           P   tau(  13) = (  0.0000000  0.0000000  0.0000000  )
        14           P   tau(  14) = (  0.5000000  0.5000000  0.1782000  )
        15           P   tau(  15) = (  0.0000000  0.0000000  0.5000000  )
        16           P   tau(  16) = (  0.5000000  0.5000000  0.6782000  )
        17           S   tau(  17) = (  0.8915000  0.2185000  0.4249500  )
        18           S   tau(  18) = (  0.3915000  0.2815000  0.2532500  )
        19           S   tau(  19) = (  0.3915000  0.7185000  0.2532500  )
        20           S   tau(  20) = (  0.8915000  0.7815000  0.4249500  )
        21           S   tau(  21) = (  0.8938000 -0.0000000  0.1432500  )
        22           S   tau(  22) = (  0.3938000  0.5000000  0.0349500  )
        23           S   tau(  23) = (  0.3288000  0.0000000  0.4915500  )
        24           S   tau(  24) = (  0.8288000  0.5000000  0.1866500  )
        25           S   tau(  25) = (  0.8915000  0.2185000  0.9249500  )
        26           S   tau(  26) = (  0.3915000  0.2815000  0.7532500  )
        27           S   tau(  27) = (  0.3915000  0.7185000  0.7532500  )
        28           S   tau(  28) = (  0.8915000  0.7815000  0.9249500  )
        29           S   tau(  29) = (  0.8938000 -0.0000000  0.6432500  )
        30           S   tau(  30) = (  0.3938000  0.5000000  0.5349500  )
        31           S   tau(  31) = (  0.3288000  0.0000000  0.9915500  )
        32           S   tau(  32) = (  0.8288000  0.5000000  0.6866500  )

     number of k points=    16
                       cart. coord. in units 2pi/alat
        k(    1) = (   0.1250000   0.0989787   0.0583727), wk =   0.1250000
        k(    2) = (   0.1250000   0.0989787   0.1751182), wk =   0.1250000
        k(    3) = (   0.1250000   0.2969360   0.0583727), wk =   0.1250000
        k(    4) = (   0.1250000   0.2969360   0.1751182), wk =   0.1250000
        k(    5) = (   0.3750000   0.0989787   0.0583727), wk =   0.1250000
        k(    6) = (   0.3750000   0.0989787   0.1751182), wk =   0.1250000
        k(    7) = (   0.3750000   0.2969360   0.0583727), wk =   0.1250000
        k(    8) = (   0.3750000   0.2969360   0.1751182), wk =   0.1250000
        k(    9) = (   0.1250000  -0.0989787  -0.0583727), wk =   0.1250000
        k(   10) = (   0.1250000  -0.0989787  -0.1751182), wk =   0.1250000
        k(   11) = (   0.1250000  -0.2969360  -0.0583727), wk =   0.1250000
        k(   12) = (   0.1250000  -0.2969360  -0.1751182), wk =   0.1250000
        k(   13) = (   0.3750000  -0.0989787  -0.0583727), wk =   0.1250000
        k(   14) = (   0.3750000  -0.0989787  -0.1751182), wk =   0.1250000
        k(   15) = (   0.3750000  -0.2969360  -0.0583727), wk =   0.1250000
        k(   16) = (   0.3750000  -0.2969360  -0.1751182), wk =   0.1250000

                       cryst. coord.
        k(    1) = (   0.1250000   0.1250000   0.1250000), wk =   0.1250000
        k(    2) = (   0.1250000   0.1250000   0.3750000), wk =   0.1250000
        k(    3) = (   0.1250000   0.3750000   0.1250000), wk =   0.1250000
        k(    4) = (   0.1250000   0.3750000   0.3750000), wk =   0.1250000
        k(    5) = (   0.3750000   0.1250000   0.1250000), wk =   0.1250000
[...]
     atom   11 type  1   force =    -0.00827372   -0.00000000    0.03321293
     atom   12 type  1   force =    -0.00827205   -0.00000000   -0.03321372
     atom   13 type  2   force =    -0.00132848   -0.00000000    0.00049138
     atom   14 type  2   force =    -0.00132925   -0.00000000   -0.00049194
     atom   15 type  2   force =    -0.00132856   -0.00000000    0.00049159
     atom   16 type  2   force =    -0.00132920   -0.00000000   -0.00049168
     atom   17 type  3   force =     0.04128062   -0.08534269    0.07371788
     atom   18 type  3   force =     0.04128091    0.08534389   -0.07371665
     atom   19 type  3   force =     0.04128091   -0.08534389   -0.07371665
     atom   20 type  3   force =     0.04128062    0.08534269    0.07371788
     atom   21 type  3   force =     0.04559609    0.00000000   -0.11995420
     atom   22 type  3   force =     0.04559614    0.00000000    0.11995383
     atom   23 type  3   force =    -0.13229686   -0.00000000    0.01093620
     atom   24 type  3   force =    -0.13229604   -0.00000000   -0.01093505
     atom   25 type  3   force =     0.04128052   -0.08534260    0.07371772
     atom   26 type  3   force =     0.04128084    0.08534378   -0.07371649
     atom   27 type  3   force =     0.04128084   -0.08534378   -0.07371649
     atom   28 type  3   force =     0.04128052    0.08534260    0.07371772
     atom   29 type  3   force =     0.04559613    0.00000000   -0.11995419
     atom   30 type  3   force =     0.04559613    0.00000000    0.11995386
     atom   31 type  3   force =    -0.13229675   -0.00000000    0.01093610
     atom   32 type  3   force =    -0.13229595   -0.00000000   -0.01093491
     The ionic contribution  to forces
     atom    1 type  1   force =     0.08084038   -0.14595361    0.20724790
     atom    2 type  1   force =     0.08085786    0.14596449   -0.20724494
     atom    3 type  1   force =     0.08085786   -0.14596449   -0.20724494
     atom    4 type  1   force =     0.08084038    0.14595361    0.20724790
     atom    5 type  1   force =    -0.03998321    0.00000000    0.57132564
     atom    6 type  1   force =    -0.03996444   -0.00000000   -0.57133339
     atom    7 type  1   force =     0.08084032   -0.14595362    0.20724908
     atom    8 type  1   force =     0.08085771    0.14596464   -0.20724590
     atom    9 type  1   force =     0.08085771   -0.14596464   -0.20724590
     atom   10 type  1   force =     0.08084032    0.14595362    0.20724908
     atom   11 type  1   force =    -0.03998309   -0.00000000    0.57132767
     atom   12 type  1   force =    -0.03996464   -0.00000000   -0.57133153
     atom   13 type  2   force =    -0.01829643   -0.00000000   -0.13918258
     atom   14 type  2   force =    -0.01829003    0.00000000    0.13917472
     atom   15 type  2   force =    -0.01829714   -0.00000000   -0.13917936
     atom   16 type  2   force =    -0.01828938    0.00000000    0.13917821
     atom   17 type  3   force =    -0.76345297    2.40414047   -1.44476000
     atom   18 type  3   force =    -0.76342675   -2.40413929    1.44475154
     atom   19 type  3   force =    -0.76342675    2.40413929    1.44475154
     atom   20 type  3   force =    -0.76345297   -2.40414047   -1.44476000
     atom   21 type  3   force =    -0.96352151    0.00000000    2.65667009
     atom   22 type  3   force =    -0.96354847    0.00000000   -2.65667246
     atom   23 type  3   force =     2.38698132    0.00000000   -0.42659032
     atom   24 type  3   force =     2.38698694   -0.00000000    0.42660906
     atom   25 type  3   force =    -0.76345409    2.40414129   -1.44476151
     atom   26 type  3   force =    -0.76342783   -2.40413985    1.44475359
     atom   27 type  3   force =    -0.76342783    2.40413985    1.44475359
     atom   28 type  3   force =    -0.76345409   -2.40414129   -1.44476151
     atom   29 type  3   force =    -0.96352041   -0.00000000    2.65667406
     atom   30 type  3   force =    -0.96354947    0.00000000   -2.65666853
     atom   31 type  3   force =     2.38698258    0.00000000   -0.42659226
     atom   32 type  3   force =     2.38698807   -0.00000000    0.42661145
     The local contribution  to forces
     atom    1 type  1   force =    -0.08397131    0.15503828   -0.21418556
     atom    2 type  1   force =    -0.08398861   -0.15504937    0.21418260
     atom    3 type  1   force =    -0.08398861    0.15504937    0.21418260
     atom    4 type  1   force =    -0.08397131   -0.15503828   -0.21418556
     atom    5 type  1   force =     0.04803910    0.00000000   -0.60456609
     atom    6 type  1   force =     0.04801916   -0.00000000    0.60457455
     atom    7 type  1   force =    -0.08397129    0.15503831   -0.21418668
     atom    8 type  1   force =    -0.08398845   -0.15504958    0.21418351
     atom    9 type  1   force =    -0.08398845    0.15504958    0.21418351
     atom   10 type  1   force =    -0.08397129   -0.15503831   -0.21418668
     atom   11 type  1   force =     0.04803894    0.00000000   -0.60456811
     atom   12 type  1   force =     0.04801937   -0.00000000    0.60457268
     atom   13 type  2   force =     0.01960943   -0.00000000    0.13889161
     atom   14 type  2   force =     0.01960415    0.00000000   -0.13888331
     atom   15 type  2   force =     0.01961032   -0.00000000    0.13888841
     atom   16 type  2   force =     0.01960337    0.00000000   -0.13888692
     atom   17 type  3   force =     0.72171226   -2.31680674    1.37031674
     atom   18 type  3   force =     0.72168648    2.31680499   -1.37030966
     atom   19 type  3   force =     0.72168648   -2.31680499   -1.37030966
     atom   20 type  3   force =     0.72171226    2.31680674    1.37031674
     atom   21 type  3   force =     0.91669660   -0.00000000   -2.53516593
     atom   22 type  3   force =     0.91672348    0.00000000    2.53516799
     atom   23 type  3   force =    -2.25300540   -0.00000000    0.41577524
     atom   24 type  3   force =    -2.25301197   -0.00000000   -0.41579526
     atom   25 type  3   force =     0.72171352   -2.31680772    1.37031791
     atom   26 type  3   force =     0.72168763    2.31680565   -1.37031155
     atom   27 type  3   force =     0.72168763   -2.31680565   -1.37031155
     atom   28 type  3   force =     0.72171352    2.31680772    1.37031791
     atom   29 type  3   force =     0.91669536   -0.00000000   -2.53516891
     atom   30 type  3   force =     0.91672457    0.00000000    2.53516503
     atom   31 type  3   force =    -2.25300686    0.00000000    0.41577656
     atom   32 type  3   force =    -2.25301323   -0.00000000   -0.41579720
     The core correction contribution to forces
     atom    1 type  1   force =     0.00000000    0.00000000    0.00000000
     atom    2 type  1   force =     0.00000000    0.00000000    0.00000000
     atom    3 type  1   force =     0.00000000    0.00000000    0.00000000
     atom    4 type  1   force =     0.00000000    0.00000000    0.00000000
     atom    5 type  1   force =     0.00000000    0.00000000    0.00000000
     atom    6 type  1   force =     0.00000000    0.00000000    0.00000000
     atom    7 type  1   force =     0.00000000    0.00000000    0.00000000
     atom    8 type  1   force =     0.00000000    0.00000000    0.00000000
     atom    9 type  1   force =     0.00000000    0.00000000    0.00000000
     atom   10 type  1   force =     0.00000000    0.00000000    0.00000000
     atom   11 type  1   force =     0.00000000    0.00000000    0.00000000
     atom   12 type  1   force =     0.00000000    0.00000000    0.00000000
     atom   13 type  2   force =     0.00006040    0.00000000   -0.00005214
     atom   14 type  2   force =     0.00006043   -0.00000000    0.00005218
     atom   15 type  2   force =     0.00006041    0.00000000   -0.00005215
     atom   16 type  2   force =     0.00006043   -0.00000000    0.00005217
     atom   17 type  3   force =     0.00069309   -0.00235174    0.00090979
     atom   18 type  3   force =     0.00069304    0.00235174   -0.00090978
     atom   19 type  3   force =     0.00069304   -0.00235174   -0.00090978
     atom   20 type  3   force =     0.00069309    0.00235174    0.00090979
     atom   21 type  3   force =     0.00088674    0.00000000   -0.00214180
     atom   22 type  3   force =     0.00088679   -0.00000000    0.00214179
     atom   23 type  3   force =    -0.00215899   -0.00000000    0.00012711
     atom   24 type  3   force =    -0.00215902    0.00000000   -0.00012716
     atom   25 type  3   force =     0.00069310   -0.00235174    0.00090978
     atom   26 type  3   force =     0.00069304    0.00235174   -0.00090978
     atom   27 type  3   force =     0.00069304   -0.00235174   -0.00090978
     atom   28 type  3   force =     0.00069310    0.00235174    0.00090978
     atom   29 type  3   force =     0.00088674    0.00000000   -0.00214180
     atom   30 type  3   force =     0.00088680   -0.00000000    0.00214179
     atom   31 type  3   force =    -0.00215900    0.00000000    0.00012711
     atom   32 type  3   force =    -0.00215902    0.00000000   -0.00012716
     The Hubbard contrib.    to forces
     atom    1 type  1   force =     0.00000000    0.00000000    0.00000000
     atom    2 type  1   force =     0.00000000    0.00000000    0.00000000
     atom    3 type  1   force =     0.00000000    0.00000000    0.00000000
     atom    4 type  1   force =     0.00000000    0.00000000    0.00000000
     atom    5 type  1   force =     0.00000000    0.00000000    0.00000000
     atom    6 type  1   force =     0.00000000    0.00000000    0.00000000
     atom    7 type  1   force =     0.00000000    0.00000000    0.00000000
     atom    8 type  1   force =     0.00000000    0.00000000    0.00000000
     atom    9 type  1   force =     0.00000000    0.00000000    0.00000000
     atom   10 type  1   force =     0.00000000    0.00000000    0.00000000
     atom   11 type  1   force =     0.00000000    0.00000000    0.00000000
     atom   12 type  1   force =     0.00000000    0.00000000    0.00000000
     atom   13 type  2   force =     0.00000000    0.00000000    0.00000000
     atom   14 type  2   force =     0.00000000    0.00000000    0.00000000
     atom   15 type  2   force =     0.00000000    0.00000000    0.00000000
     atom   16 type  2   force =     0.00000000    0.00000000    0.00000000
     atom   17 type  3   force =     0.00000000    0.00000000    0.00000000
     atom   18 type  3   force =     0.00000000    0.00000000    0.00000000
     atom   19 type  3   force =     0.00000000    0.00000000    0.00000000
     atom   20 type  3   force =     0.00000000    0.00000000    0.00000000
     atom   21 type  3   force =     0.00000000    0.00000000    0.00000000
     atom   22 type  3   force =     0.00000000    0.00000000    0.00000000
     atom   23 type  3   force =     0.00000000    0.00000000    0.00000000
     atom   24 type  3   force =     0.00000000    0.00000000    0.00000000
     atom   25 type  3   force =     0.00000000    0.00000000    0.00000000
     atom   26 type  3   force =     0.00000000    0.00000000    0.00000000
     atom   27 type  3   force =     0.00000000    0.00000000    0.00000000
     atom   28 type  3   force =     0.00000000    0.00000000    0.00000000
     atom   29 type  3   force =     0.00000000    0.00000000    0.00000000
     atom   30 type  3   force =     0.00000000    0.00000000    0.00000000
     atom   31 type  3   force =     0.00000000    0.00000000    0.00000000
     atom   32 type  3   force =     0.00000000    0.00000000    0.00000000
     The SCF correction term to forces
     atom    1 type  1   force =     0.00000002   -0.00000005   -0.00000004
     atom    2 type  1   force =    -0.00000002   -0.00000005    0.00000002
     atom    3 type  1   force =    -0.00000002    0.00000005    0.00000002
     atom    4 type  1   force =     0.00000002    0.00000005   -0.00000004
     atom    5 type  1   force =    -0.00000003   -0.00000000   -0.00000001
     atom    6 type  1   force =     0.00000001   -0.00000000    0.00000018
     atom    7 type  1   force =     0.00000006    0.00000000   -0.00000013
     atom    8 type  1   force =    -0.00000003   -0.00000007    0.00000014
     atom    9 type  1   force =    -0.00000003    0.00000007    0.00000014
     atom   10 type  1   force =     0.00000006   -0.00000000   -0.00000013
     atom   11 type  1   force =    -0.00000004    0.00000000   -0.00000014
     atom   12 type  1   force =     0.00000001   -0.00000000    0.00000002
     atom   13 type  2   force =     0.00000005    0.00000000    0.00000031
     atom   14 type  2   force =    -0.00000004   -0.00000000   -0.00000002
     atom   15 type  2   force =     0.00000001    0.00000000   -0.00000012
     atom   16 type  2   force =    -0.00000002    0.00000000   -0.00000032
     atom   17 type  3   force =     0.00000019   -0.00000049    0.00000022
     atom   18 type  3   force =     0.00000001    0.00000011   -0.00000023
     atom   19 type  3   force =     0.00000001   -0.00000011   -0.00000023
     atom   20 type  3   force =     0.00000019    0.00000049    0.00000022
     atom   21 type  3   force =     0.00000018    0.00000000   -0.00000028
     atom   22 type  3   force =     0.00000004    0.00000000    0.00000085
     atom   23 type  3   force =    -0.00000043   -0.00000000   -0.00000007
     atom   24 type  3   force =    -0.00000018   -0.00000000   -0.00000005
     atom   25 type  3   force =     0.00000021   -0.00000049    0.00000062
     atom   26 type  3   force =     0.00000002    0.00000015   -0.00000042
     atom   27 type  3   force =     0.00000002   -0.00000015   -0.00000042
     atom   28 type  3   force =     0.00000021    0.00000049    0.00000062
     atom   29 type  3   force =     0.00000020    0.00000000   -0.00000096
     atom   30 type  3   force =     0.00000004   -0.00000000    0.00000018
     atom   31 type  3   force =    -0.00000047   -0.00000000    0.00000048
     atom   32 type  3   force =    -0.00000022   -0.00000000   -0.00000047

     Total force =     0.002431     Total SCF correction =     0.000002

     Computing stress (Cartesian axis) and pressure

          total   stress  (Ry/bohr**3)                   (kbar)     P=       -0.40
  -0.00000265   0.00000000  -0.00000000           -0.39        0.00       -0.00
   0.00000000  -0.00000220  -0.00000000            0.00       -0.32       -0.00
  -0.00000000  -0.00000000  -0.00000335           -0.00       -0.00       -0.49

     kinetic stress (kbar)   5159.56     -0.00     -0.00
                               -0.00   5159.23     -0.00
                               -0.00     -0.00   5158.23

     local   stress (kbar)  -3695.03     -0.00     -0.00
                               -0.00  -3299.24      0.00
                               -0.00      0.00  -3123.91

     nonloc. stress (kbar)   2980.97     -0.00      0.00
                               -0.00   2986.67     -0.00
                                0.00     -0.00   2982.12

     hartree stress (kbar)   1474.53      0.00     -0.00
                                0.00   1302.87     -0.00
                               -0.00     -0.00   1236.89

     exc-cor stress (kbar)  -1022.82      0.00     -0.00
                                0.00  -1023.06     -0.00
                               -0.00     -0.00  -1023.06

     corecor stress (kbar)   -497.32     -0.00     -0.00
                               -0.00   -497.52      0.00
                               -0.00      0.00   -497.34

     ewald   stress (kbar)  -4400.27      0.00      0.00
                                0.00  -4629.27     -0.00
                                0.00     -0.00  -4733.41

     hubbard stress (kbar)      0.00      0.00      0.00
                                0.00      0.00      0.00
                                0.00      0.00      0.00

     DFT-D   stress (kbar)      0.00      0.00      0.00
                                0.00      0.00      0.00
                                0.00      0.00      0.00

     XDM     stress (kbar)      0.00      0.00      0.00
                                0.00      0.00      0.00
                                0.00      0.00      0.00

     dft-nl  stress (kbar)      0.00      0.00      0.00
                                0.00      0.00      0.00
                                0.00      0.00      0.00

     TS-vdW  stress (kbar)      0.00      0.00      0.00
                                0.00      0.00      0.00
                                0.00      0.00      0.00

[...]

                                0.00      0.00      0.00

     Writing all to output data dir ./tmp1/pwscf.save/

     General routines

     Parallel routines

   This run was terminated on:  19:46:36   4Feb2023

   JOB DONE.